ENCUT = 520
#ISIF = 3
LWAVE = False
MAGMOM = 28*0.6
SIGMA = 0.01

PREC = Accurate
NELMIN = 6
NELM = 100
#EDIFF = 1E-08
#EDIFFG = -0.001
#ISIF = 3
#LREAL = .FALSE.
ADDGRID = .TRUE.
#NSW = 0
ISMEAR = 0
SIGMA = 0.01
#IBRION = 2
##POTIM = 0.2

ISPIN = 2

#GGA = PS
LASPH = .TRUE.

NEDOS = 1500

LORBIT = 11

LDAU = .TRUE.
LDAUTYPE = 1
LDAUL = 2 -1
LDAUU = 1.54099 0.0
LDAUJ = 0.213356 0.0
LDAUPRINT = 2

LMAXMIX = 4




